TYPE : Vertex Cover
DIMENSION: 36
EDGE_DATA_SECTION:
0 3
0 13
0 18
0 19
0 23
0 26
0 29
1 3
1 6
1 7
1 9
1 11
1 18
1 22
1 26
1 28
1 35
2 5
2 8
2 16
2 18
2 19
2 20
2 25
2 29
2 31
2 34
2 35
3 7
3 8
3 11
3 18
3 22
3 23
3 25
4 9
4 14
4 17
4 20
4 22
4 23
4 27
4 35
5 14
5 25
5 26
5 28
6 7
6 9
6 10
6 19
6 20
6 22
6 33
7 13
7 17
7 18
7 21
7 22
7 26
7 30
7 31
7 33
7 35
8 12
8 13
8 15
8 18
8 26
8 27
8 31
8 32
9 10
9 17
9 19
9 20
9 26
9 28
9 31
9 34
10 12
10 14
10 21
10 25
10 31
10 33
10 34
11 14
11 16
11 25
11 26
11 29
12 14
12 17
12 20
12 26
13 32
13 34
13 35
14 19
14 21
14 23
14 24
14 35
15 17
15 22
15 25
15 27
15 28
15 30
15 31
15 35
16 23
16 24
16 25
16 27
16 34
16 35
17 19
17 22
17 23
17 25
18 20
18 32
18 33
19 30
20 28
20 29
21 22
21 23
21 25
21 29
21 31
21 34
22 23
22 24
22 32
23 33
23 34
24 28
25 32
25 33
26 35
27 29
28 34
29 31
29 35
30 32
30 34
31 33
31 34
34 35
-1
VERTEX_DEGREE:
7.0 10.0 11.0 9.0 8.0 5.0 8.0 13.0 10.0 11.0 9.0 7.0 6.0 6.0 10.0 9.0 8.0 9.0 9.0 7.0 8.0 9.0 11.0 10.0 4.0 11.0 9.0 5.0 7.0 8.0 5.0 10.0 6.0 7.0 11.0 11.0
VERTEX_COVER:
0 1 2 6 7 8 9 10 11 13 14 16 17 18 20 21 22 23 25 26 27 28 30 31 35
EOF
